minizinc/sudoku_problems2/sudoku_p3.dzn
%
% sudoku_p3.dzn
% See http://www.hakank.org/minizinc/sudoku_gcc.mzn
% 
% This problem is problem 3 from
% Gecode's sudoku.cpp
% http://www.gecode.org/gecode-doc-latest/sudoku_8cpp-source.html
% 
x = array2d(1..n, 1..n, [   
% 3
% Fiendish puzzle April 21 2005 Times London
  _,  _,  4,  _,  _,  3,  _,  7,  _,
  _,  8,  _,  _,  7,  _,  _,  _,  _,
  _,  7,  _,  _,  _,  8,  2,  _,  5,
  4,  _,  _,  _,  _,  _,  3,  1,  _,
  9,  _,  _,  _,  _,  _,  _,  _,  8,
  _,  1,  5,  _,  _,  _,  _,  _,  4,
  1,  _,  6,  9,  _,  _,  _,  3,  _,
  _,  _,  _,  _,  2,  _,  _,  6,  _,
  _,  2,  _,  4,  _,  _,  5,  _,  _
]);

n = 9;


